6 36
0 0 2147483647
0 1 21
1 0 21
0 2 12
2 0 12
0 3 76
3 0 76
0 4 77
4 0 77
0 5 78
5 0 78
1 1 2147483647
1 2 65
2 1 65
1 3 21
3 1 21
1 4 2
4 1 2
1 5 46
5 1 46
2 2 2147483647
2 3 60
3 2 60
2 4 32
4 2 32
2 5 41
5 2 41
3 3 2147483647
3 4 98
4 3 98
3 5 78
5 3 78
4 4 2147483647
4 5 40
5 4 40
5 5 2147483647
